c "953277.clq"
p edge 100 1344
e 1 17
e 1 18
e 1 19
e 1 22
e 1 24
e 1 25
e 1 26
e 1 31
e 1 33
e 1 34
e 1 35
e 1 38
e 1 39
e 1 41
e 1 42
e 1 43
e 1 44
e 1 45
e 1 50
e 1 53
e 1 63
e 1 66
e 1 70
e 1 72
e 1 76
e 1 77
e 1 79
e 1 82
e 1 87
e 1 88
e 1 91
e 1 93
e 1 100
e 2 17
e 2 18
e 2 19
e 2 20
e 2 21
e 2 22
e 2 25
e 2 26
e 2 28
e 2 29
e 2 31
e 2 34
e 2 37
e 2 40
e 2 41
e 2 43
e 2 44
e 2 47
e 2 54
e 2 58
e 2 60
e 2 62
e 2 63
e 2 69
e 2 77
e 2 83
e 2 86
e 2 93
e 3 17
e 3 18
e 3 19
e 3 20
e 3 21
e 3 22
e 3 23
e 3 25
e 3 26
e 3 27
e 3 30
e 3 31
e 3 32
e 3 33
e 3 34
e 3 38
e 3 39
e 3 43
e 3 44
e 3 46
e 3 48
e 3 49
e 3 56
e 3 59
e 3 62
e 3 72
e 3 77
e 3 79
e 3 80
e 3 83
e 3 84
e 3 87
e 3 89
e 3 94
e 4 17
e 4 19
e 4 20
e 4 21
e 4 22
e 4 23
e 4 24
e 4 28
e 4 29
e 4 31
e 4 37
e 4 41
e 4 45
e 4 47
e 4 58
e 4 76
e 4 86
e 4 87
e 4 99
e 5 17
e 5 18
e 5 19
e 5 20
e 5 21
e 5 28
e 5 29
e 5 32
e 5 40
e 5 42
e 5 49
e 5 53
e 5 62
e 5 90
e 6 17
e 6 18
e 6 19
e 6 20
e 6 21
e 6 23
e 6 24
e 6 26
e 6 27
e 6 28
e 6 30
e 6 32
e 6 33
e 6 34
e 6 37
e 6 38
e 6 46
e 6 47
e 6 48
e 6 51
e 6 57
e 6 60
e 6 71
e 6 72
e 6 74
e 6 75
e 6 78
e 6 79
e 6 80
e 6 83
e 6 84
e 6 85
e 6 86
e 6 88
e 6 92
e 6 94
e 6 95
e 7 17
e 7 18
e 7 19
e 7 20
e 7 21
e 7 23
e 7 25
e 7 26
e 7 34
e 7 36
e 7 37
e 7 40
e 7 43
e 7 45
e 7 46
e 7 47
e 7 48
e 7 50
e 7 51
e 7 56
e 7 57
e 7 63
e 7 64
e 7 75
e 8 17
e 8 18
e 8 19
e 8 20
e 8 21
e 8 22
e 8 23
e 8 24
e 8 25
e 8 27
e 8 29
e 8 30
e 8 32
e 8 37
e 8 45
e 8 46
e 8 50
e 8 52
e 8 53
e 8 60
e 8 61
e 8 68
e 8 86
e 8 92
e 9 17
e 9 18
e 9 19
e 9 23
e 9 27
e 9 33
e 9 34
e 9 46
e 9 48
e 9 67
e 9 70
e 10 17
e 10 18
e 10 19
e 10 20
e 10 21
e 10 22
e 10 24
e 10 25
e 10 28
e 10 33
e 10 37
e 10 38
e 10 51
e 10 56
e 10 63
e 10 64
e 10 72
e 10 93
e 10 94
e 10 98
e 11 17
e 11 18
e 11 21
e 11 22
e 11 23
e 11 24
e 11 26
e 11 36
e 11 38
e 11 52
e 11 60
e 11 71
e 11 76
e 11 79
e 11 84
e 11 90
e 11 91
e 11 92
e 11 96
e 11 99
e 12 17
e 12 18
e 12 19
e 12 20
e 12 21
e 12 22
e 12 23
e 12 24
e 12 25
e 12 26
e 12 28
e 12 29
e 12 31
e 12 32
e 12 34
e 12 35
e 12 38
e 12 40
e 12 41
e 12 42
e 12 45
e 12 53
e 12 60
e 12 61
e 12 79
e 12 88
e 12 90
e 12 95
e 13 17
e 13 18
e 13 19
e 13 20
e 13 22
e 13 24
e 13 25
e 13 27
e 13 36
e 13 39
e 13 43
e 13 47
e 13 53
e 13 61
e 13 64
e 13 74
e 13 76
e 13 77
e 13 78
e 13 79
e 13 82
e 13 83
e 13 85
e 13 88
e 13 96
e 13 100
e 14 17
e 14 18
e 14 20
e 14 23
e 14 24
e 14 27
e 14 31
e 14 32
e 14 35
e 14 40
e 14 42
e 14 45
e 14 49
e 14 58
e 14 60
e 14 61
e 14 67
e 14 68
e 14 70
e 14 73
e 14 83
e 14 88
e 14 89
e 14 99
e 15 17
e 15 18
e 15 19
e 15 20
e 15 21
e 15 22
e 15 23
e 15 25
e 15 27
e 15 30
e 15 31
e 15 32
e 15 33
e 15 34
e 15 35
e 15 36
e 15 44
e 15 46
e 15 48
e 15 50
e 15 53
e 15 54
e 15 57
e 15 59
e 15 64
e 15 65
e 15 66
e 15 71
e 15 91
e 15 96
e 16 17
e 16 18
e 16 19
e 16 20
e 16 21
e 16 22
e 16 24
e 16 25
e 16 26
e 16 27
e 16 31
e 16 32
e 16 38
e 16 40
e 16 41
e 16 43
e 16 44
e 16 49
e 16 51
e 16 55
e 16 60
e 16 61
e 16 79
e 16 82
e 16 92
e 17 18
e 17 19
e 17 20
e 17 21
e 17 22
e 17 23
e 17 24
e 17 25
e 17 26
e 17 27
e 17 28
e 17 29
e 17 30
e 17 32
e 17 35
e 17 39
e 17 40
e 17 41
e 17 43
e 17 44
e 17 46
e 17 49
e 17 54
e 17 55
e 17 57
e 17 65
e 17 69
e 17 73
e 17 74
e 17 75
e 17 80
e 17 81
e 17 85
e 17 89
e 17 93
e 17 94
e 17 95
e 17 97
e 17 98
e 18 19
e 18 20
e 18 21
e 18 22
e 18 23
e 18 24
e 18 25
e 18 26
e 18 28
e 18 29
e 18 30
e 18 31
e 18 34
e 18 35
e 18 36
e 18 38
e 18 39
e 18 42
e 18 47
e 18 50
e 18 51
e 18 56
e 18 57
e 18 58
e 18 65
e 18 67
e 18 68
e 18 70
e 18 72
e 18 74
e 18 75
e 18 77
e 18 79
e 18 83
e 18 88
e 18 89
e 18 91
e 18 94
e 18 96
e 18 100
e 19 20
e 19 21
e 19 22
e 19 23
e 19 24
e 19 25
e 19 27
e 19 28
e 19 29
e 19 30
e 19 33
e 19 34
e 19 35
e 19 36
e 19 38
e 19 39
e 19 41
e 19 43
e 19 44
e 19 45
e 19 46
e 19 47
e 19 48
e 19 52
e 19 55
e 19 56
e 19 58
e 19 59
e 19 60
e 19 62
e 19 63
e 19 64
e 19 67
e 19 69
e 19 71
e 19 73
e 19 76
e 19 78
e 19 80
e 19 84
e 19 87
e 19 91
e 19 92
e 19 94
e 19 96
e 20 21
e 20 22
e 20 23
e 20 25
e 20 26
e 20 27
e 20 28
e 20 29
e 20 30
e 20 31
e 20 33
e 20 34
e 20 35
e 20 36
e 20 39
e 20 42
e 20 43
e 20 44
e 20 49
e 20 50
e 20 54
e 20 55
e 20 57
e 20 59
e 20 63
e 20 67
e 20 70
e 20 73
e 20 76
e 20 81
e 20 87
e 20 91
e 20 94
e 20 100
e 21 22
e 21 23
e 21 24
e 21 26
e 21 27
e 21 28
e 21 29
e 21 30
e 21 31
e 21 32
e 21 33
e 21 34
e 21 36
e 21 40
e 21 41
e 21 43
e 21 49
e 21 51
e 21 52
e 21 53
e 21 54
e 21 56
e 21 58
e 21 62
e 21 64
e 21 65
e 21 66
e 21 67
e 21 69
e 21 71
e 21 73
e 21 74
e 21 77
e 21 79
e 21 80
e 21 82
e 21 84
e 21 85
e 21 88
e 21 89
e 21 91
e 21 93
e 21 95
e 22 23
e 22 24
e 22 26
e 22 27
e 22 28
e 22 29
e 22 30
e 22 31
e 22 32
e 22 33
e 22 36
e 22 37
e 22 40
e 22 41
e 22 42
e 22 43
e 22 46
e 22 47
e 22 48
e 22 50
e 22 51
e 22 52
e 22 55
e 22 56
e 22 57
e 22 58
e 22 61
e 22 63
e 22 64
e 22 66
e 22 67
e 22 70
e 22 71
e 22 72
e 22 78
e 22 82
e 22 88
e 22 89
e 22 90
e 22 92
e 22 93
e 22 96
e 22 98
e 22 99
e 23 24
e 23 25
e 23 26
e 23 27
e 23 28
e 23 29
e 23 30
e 23 33
e 23 35
e 23 37
e 23 39
e 23 41
e 23 44
e 23 48
e 23 50
e 23 55
e 23 72
e 23 73
e 23 74
e 23 79
e 23 82
e 23 87
e 23 90
e 23 93
e 23 94
e 23 95
e 23 96
e 23 97
e 24 25
e 24 26
e 24 28
e 24 29
e 24 30
e 24 31
e 24 32
e 24 33
e 24 34
e 24 35
e 24 36
e 24 37
e 24 38
e 24 40
e 24 45
e 24 47
e 24 48
e 24 49
e 24 53
e 24 56
e 24 57
e 24 58
e 24 62
e 24 80
e 24 81
e 24 87
e 24 89
e 24 98
e 25 26
e 25 27
e 25 28
e 25 29
e 25 30
e 25 31
e 25 33
e 25 35
e 25 36
e 25 39
e 25 41
e 25 42
e 25 48
e 25 49
e 25 51
e 25 52
e 25 57
e 25 58
e 25 60
e 25 62
e 25 63
e 25 64
e 25 66
e 25 67
e 25 68
e 25 69
e 25 70
e 25 71
e 25 73
e 25 78
e 25 79
e 25 81
e 25 82
e 25 83
e 25 84
e 25 86
e 25 88
e 25 89
e 25 90
e 25 94
e 25 100
e 26 27
e 26 28
e 26 29
e 26 33
e 26 34
e 26 35
e 26 36
e 26 37
e 26 38
e 26 41
e 26 42
e 26 44
e 26 46
e 26 47
e 26 49
e 26 50
e 26 52
e 26 53
e 26 54
e 26 56
e 26 57
e 26 59
e 26 62
e 26 63
e 26 65
e 26 66
e 26 68
e 26 69
e 26 70
e 26 76
e 26 77
e 26 78
e 26 84
e 26 92
e 26 93
e 26 96
e 26 99
e 27 30
e 27 32
e 27 33
e 27 35
e 27 36
e 27 40
e 27 41
e 27 43
e 27 46
e 27 47
e 27 49
e 27 50
e 27 52
e 27 54
e 27 55
e 27 56
e 27 61
e 27 63
e 27 66
e 27 67
e 27 68
e 27 72
e 27 77
e 27 95
e 27 98
e 27 99
e 28 29
e 28 30
e 28 31
e 28 32
e 28 33
e 28 34
e 28 36
e 28 37
e 28 38
e 28 39
e 28 42
e 28 43
e 28 51
e 28 53
e 28 55
e 28 58
e 28 59
e 28 60
e 28 70
e 28 73
e 28 74
e 28 75
e 28 78
e 28 81
e 28 82
e 28 83
e 28 85
e 28 90
e 28 94
e 28 95
e 28 100
e 29 30
e 29 31
e 29 32
e 29 36
e 29 37
e 29 38
e 29 39
e 29 45
e 29 46
e 29 47
e 29 48
e 29 49
e 29 51
e 29 57
e 29 58
e 29 59
e 29 60
e 29 65
e 29 67
e 29 72
e 29 75
e 29 79
e 29 90
e 29 91
e 30 37
e 30 38
e 30 42
e 30 44
e 30 45
e 30 51
e 30 52
e 30 65
e 30 66
e 30 71
e 30 89
e 30 99
e 31 32
e 31 34
e 31 35
e 31 40
e 31 43
e 31 45
e 31 52
e 31 53
e 31 55
e 31 59
e 31 71
e 31 73
e 31 75
e 31 84
e 31 86
e 31 96
e 31 97
e 31 100
e 32 35
e 32 39
e 32 40
e 32 44
e 32 51
e 32 59
e 32 62
e 32 65
e 32 71
e 32 75
e 32 76
e 32 80
e 32 83
e 32 85
e 32 92
e 32 93
e 32 97
e 33 38
e 33 39
e 33 40
e 33 41
e 33 47
e 33 48
e 33 49
e 33 50
e 33 51
e 33 53
e 33 54
e 33 60
e 33 62
e 33 68
e 33 75
e 33 80
e 33 83
e 33 88
e 33 91
e 33 92
e 33 93
e 33 98
e 34 35
e 34 36
e 34 37
e 34 41
e 34 42
e 34 43
e 34 45
e 34 49
e 34 54
e 34 57
e 34 61
e 34 62
e 34 68
e 34 71
e 34 77
e 34 85
e 34 91
e 35 37
e 35 39
e 35 40
e 35 42
e 35 45
e 35 46
e 35 47
e 35 48
e 35 50
e 35 61
e 35 65
e 35 72
e 35 73
e 35 75
e 35 78
e 35 80
e 35 90
e 35 95
e 36 37
e 36 38
e 36 39
e 36 42
e 36 54
e 36 55
e 36 67
e 36 69
e 36 74
e 36 76
e 36 77
e 36 78
e 36 93
e 36 94
e 36 96
e 36 97
e 36 100
e 37 39
e 37 40
e 37 42
e 37 47
e 37 49
e 37 52
e 37 55
e 37 61
e 37 62
e 37 66
e 37 70
e 37 73
e 37 74
e 37 85
e 37 96
e 38 42
e 38 46
e 38 48
e 38 51
e 38 52
e 38 54
e 38 59
e 38 61
e 38 64
e 38 66
e 38 67
e 38 68
e 38 69
e 38 74
e 38 75
e 38 80
e 38 81
e 38 85
e 38 88
e 38 90
e 38 92
e 38 94
e 39 43
e 39 44
e 39 45
e 39 46
e 39 50
e 39 52
e 39 55
e 39 56
e 39 64
e 39 66
e 39 69
e 39 70
e 39 78
e 39 80
e 39 94
e 39 97
e 39 98
e 39 99
e 40 41
e 40 44
e 40 45
e 40 50
e 40 51
e 40 52
e 40 53
e 40 54
e 40 66
e 40 70
e 40 77
e 40 81
e 40 82
e 40 84
e 40 88
e 40 89
e 40 90
e 40 93
e 40 97
e 40 100
e 41 44
e 41 45
e 41 51
e 41 53
e 41 54
e 41 58
e 41 61
e 41 63
e 41 64
e 41 68
e 41 73
e 41 75
e 41 78
e 41 80
e 41 85
e 41 87
e 41 88
e 41 91
e 41 92
e 41 95
e 42 44
e 42 47
e 42 62
e 42 63
e 42 67
e 42 68
e 42 69
e 42 74
e 42 75
e 42 77
e 42 80
e 42 81
e 42 83
e 42 87
e 42 95
e 42 98
e 42 100
e 43 50
e 43 52
e 43 63
e 43 65
e 43 71
e 43 73
e 43 77
e 43 82
e 43 90
e 43 91
e 43 93
e 43 94
e 43 97
e 44 55
e 44 57
e 44 63
e 44 67
e 44 69
e 44 85
e 44 86
e 44 90
e 45 46
e 45 48
e 45 53
e 45 56
e 45 57
e 45 59
e 45 61
e 45 65
e 45 72
e 45 74
e 45 87
e 46 50
e 46 55
e 46 56
e 46 58
e 46 61
e 46 62
e 46 63
e 46 66
e 46 71
e 46 86
e 47 48
e 47 54
e 47 60
e 47 81
e 47 86
e 47 100
e 48 49
e 48 52
e 48 53
e 48 57
e 48 59
e 48 61
e 48 64
e 48 65
e 48 68
e 48 75
e 48 86
e 48 95
e 48 97
e 49 64
e 49 73
e 49 91
e 50 55
e 50 56
e 50 58
e 50 59
e 50 68
e 50 71
e 50 72
e 50 76
e 50 86
e 51 54
e 51 56
e 51 58
e 51 59
e 51 60
e 51 64
e 51 65
e 51 69
e 51 70
e 51 81
e 51 82
e 51 87
e 51 88
e 51 96
e 51 97
e 52 54
e 52 59
e 52 64
e 52 69
e 52 77
e 52 82
e 52 98
e 53 59
e 53 66
e 53 69
e 53 79
e 53 81
e 53 87
e 54 55
e 54 56
e 54 61
e 54 65
e 54 66
e 54 74
e 54 76
e 54 79
e 54 81
e 54 86
e 54 93
e 54 94
e 54 96
e 54 98
e 55 69
e 55 73
e 55 76
e 55 77
e 55 98
e 55 99
e 55 100
e 56 57
e 56 58
e 56 60
e 56 63
e 56 71
e 56 72
e 56 76
e 56 97
e 57 62
e 57 75
e 57 79
e 57 80
e 57 83
e 57 85
e 57 91
e 57 97
e 57 100
e 58 60
e 58 64
e 58 65
e 58 66
e 58 67
e 58 74
e 58 80
e 58 81
e 58 83
e 58 86
e 58 87
e 58 89
e 58 90
e 58 98
e 58 99
e 59 70
e 59 72
e 59 76
e 59 87
e 59 95
e 59 99
e 60 76
e 60 91
e 61 62
e 61 68
e 61 72
e 61 78
e 61 81
e 61 89
e 61 92
e 62 65
e 62 70
e 62 73
e 62 80
e 62 83
e 62 89
e 62 94
e 62 98
e 63 84
e 63 91
e 64 68
e 64 85
e 64 99
e 65 67
e 65 70
e 65 71
e 65 77
e 65 84
e 65 86
e 65 96
e 65 99
e 66 68
e 66 76
e 66 84
e 66 85
e 66 87
e 66 90
e 66 99
e 67 69
e 67 78
e 67 79
e 67 89
e 68 72
e 68 78
e 69 82
e 69 85
e 70 86
e 70 95
e 71 74
e 71 83
e 71 92
e 71 97
e 72 74
e 72 75
e 72 97
e 73 86
e 73 88
e 73 89
e 73 93
e 74 78
e 74 81
e 74 84
e 75 81
e 75 95
e 75 96
e 76 82
e 76 84
e 77 78
e 77 83
e 77 85
e 77 89
e 78 84
e 79 82
e 79 84
e 79 97
e 80 90
e 80 99
e 81 82
e 81 92
e 81 95
e 82 87
e 82 98
e 83 98
e 83 99
e 84 100
e 86 88
e 87 92
e 88 97
e 89 92
e 90 95
e 92 93
e 92 96
e 92 100
e 93 98
e 93 100
